(set-logic QF_LIA)
(declare-fun x0 () Int)
(declare-fun x1 () Int)
(declare-fun x2 () Int)
(declare-fun x3 () Int)
(declare-fun x4 () Int)
(declare-fun x5 () Int)
(declare-fun x6 () Int)
(declare-fun x7 () Int)
(declare-fun x8 () Int)
(declare-fun x9 () Int)
(declare-fun A2 () Bool)
(declare-fun A3 () Bool)
(declare-fun A5 () Bool)
(declare-fun A6 () Bool)
(declare-fun A7 () Bool)
(declare-fun A9 () Bool)
(assert (let ((.def_0 (* (- 1) x8))) (let ((.def_1 (* 1 x7))) (let ((.def_2 (+ .def_1 .def_0))) (let ((.def_3 (< .def_2 (- 1)))) (let ((.def_4 (not .def_3))) (let ((.def_5 (or A5 .def_4))) (let ((.def_6 (not .def_5))) (let ((.def_7 (* 1 x1))) (let ((.def_8 (< .def_7 1))) (let ((.def_9 (not .def_8))) (let ((.def_10 (not A5))) (let ((.def_11 (= .def_10 .def_9))) (let ((.def_12 (or .def_11 .def_6))) (let ((.def_13 (* (- 1) x0))) (let ((.def_14 (< .def_13 (- 1)))) (let ((.def_15 (* 1 x8))) (let ((.def_16 (* (- 1) x4))) (let ((.def_17 (+ .def_16 .def_15))) (let ((.def_18 (< .def_17 1))) (let ((.def_19 (or .def_18 .def_14))) (let ((.def_20 (* (- 1) x3))) (let ((.def_21 (* 1 x9))) (let ((.def_22 (+ .def_21 .def_20))) (let ((.def_23 (< .def_22 (- 1)))) (let ((.def_24 (not A2))) (let ((.def_25 (or .def_24 .def_23))) (let ((.def_26 (or .def_25 .def_19))) (let ((.def_27 (not .def_26))) (let ((.def_28 (and .def_27 .def_12))) (let ((.def_29 (* (- 1) x1))) (let ((.def_30 (< .def_29 (- 1)))) (let ((.def_31 (not .def_30))) (let ((.def_32 (and .def_31 A6))) (let ((.def_33 (not A9))) (let ((.def_34 (not A3))) (let ((.def_35 (or .def_34 .def_33))) (let ((.def_36 (or .def_35 .def_32))) (let ((.def_37 (not .def_36))) (let ((.def_38 (not A7))) (let ((.def_39 (< .def_20 1))) (let ((.def_40 (not .def_39))) (let ((.def_41 (and .def_40 .def_38))) (let ((.def_42 (not .def_41))) (let ((.def_43 (+ .def_21 .def_29))) (let ((.def_44 (< .def_43 (- 1)))) (let ((.def_45 (* (- 1) x7))) (let ((.def_46 (< .def_45 (- 1)))) (let ((.def_47 (and .def_46 .def_44))) (let ((.def_48 (or .def_47 .def_42))) (let ((.def_49 (not .def_48))) (let ((.def_50 (or .def_49 .def_37))) (let ((.def_51 (not .def_50))) (let ((.def_52 (and .def_51 .def_28))) (let ((.def_53 (not .def_52))) (let ((.def_54 (<= x9 1))) (let ((.def_55 (<= 0 x9))) (let ((.def_56 (<= x8 1))) (let ((.def_57 (<= 0 x8))) (let ((.def_58 (<= x7 1))) (let ((.def_59 (<= 0 x7))) (let ((.def_60 (<= x6 1))) (let ((.def_61 (<= 0 x6))) (let ((.def_62 (<= x5 1))) (let ((.def_63 (<= 0 x5))) (let ((.def_64 (<= x4 1))) (let ((.def_65 (<= 0 x4))) (let ((.def_66 (<= x3 1))) (let ((.def_67 (<= 0 x3))) (let ((.def_68 (<= x2 1))) (let ((.def_69 (<= 0 x2))) (let ((.def_70 (<= x1 1))) (let ((.def_71 (<= 0 x1))) (let ((.def_72 (<= x0 1))) (let ((.def_73 (<= 0 x0))) (let ((.def_74 (and .def_73 .def_72 .def_71 .def_70 .def_69 .def_68 .def_67 .def_66 .def_65 .def_64 .def_63 .def_62 .def_61 .def_60 .def_59 .def_58 .def_57 .def_56 .def_55 .def_54 .def_53))) .def_74))))))))))))))))))))))))))))))))))))))))))))))))))))))))))))))))))))))))))))
(check-sat)
